Solver command line: ['C:\\Users\\Gabriela Escobar\\anaconda3\\envs\\pyomo_env\\Library\\bin\\glpsol.exe', '--write', 'C:\\Users\\GABRIE~1\\AppData\\Local\\Temp\\tmpkgswsapj.glpk.raw', '--wglp', 'C:\\Users\\GABRIE~1\\AppData\\Local\\Temp\\tmppjjvuc_9.glpk.glp', '--cpxlp', 'C:\\Users\\GABRIE~1\\AppData\\Local\\Temp\\tmpr6gzkjv8.pyomo.lp']

GLPSOL--GLPK LP/MIP Solver 5.0
Parameter(s) specified in the command line:
 --write C:\Users\GABRIE~1\AppData\Local\Temp\tmpkgswsapj.glpk.raw --wglp
 C:\Users\GABRIE~1\AppData\Local\Temp\tmppjjvuc_9.glpk.glp --cpxlp C:\Users\GABRIE~1\AppData\Local\Temp\tmpr6gzkjv8.pyomo.lp
Reading problem data from 'C:\Users\GABRIE~1\AppData\Local\Temp\tmpr6gzkjv8.pyomo.lp'...
51 rows, 51 columns, 2501 non-zeros
2762 lines were read
Writing problem data to 'C:\Users\GABRIE~1\AppData\Local\Temp\tmppjjvuc_9.glpk.glp'...
2707 lines were written
GLPK Simplex Optimizer 5.0
51 rows, 51 columns, 2501 non-zeros
Preprocessing...
50 rows, 50 columns, 2500 non-zeros
Scaling...
 A: min|aij| =  5.174e-03  max|aij| =  4.998e+00  ratio =  9.660e+02
GM: min|aij| =  4.250e-02  max|aij| =  2.353e+01  ratio =  5.535e+02
EQ: min|aij| =  1.807e-03  max|aij| =  1.000e+00  ratio =  5.535e+02
Constructing initial basis...
Size of triangular part is 50
*     0: obj =  -0.000000000e+00 inf =   0.000e+00 (50)
*    27: obj =   2.011725448e+02 inf =   0.000e+00 (0)
OPTIMAL LP SOLUTION FOUND
Time used:   0.0 secs
Memory used: 0.5 Mb (490780 bytes)
Writing basic solution to 'C:\Users\GABRIE~1\AppData\Local\Temp\tmpkgswsapj.glpk.raw'...
111 lines were written

